          15
GPU4PySCF keto-acetylacetone topology reference
  O   -1.4597937265   -1.4524236388    0.2670010211
  O    1.4597661200    1.4524444733    0.2669830992
  C    0.0000303313   -0.0000146298   -0.9572763243
  C   -1.1990784014   -0.3009334649   -0.0925142339
  C    1.1991050230    0.3009420521   -0.0925466524
  C   -2.0245338736    0.8810373941    0.2903894879
  C    2.0245156079   -0.8810311183    0.2904205452
  H   -0.2221787856    0.8831042094   -1.6127580412
  H    0.2221477520   -0.8831607423   -1.6127538587
  H   -2.5720752494    1.2607043481   -0.6069567395
  H   -1.3608670363    1.6963785350    0.6724935477
  H   -2.7677218873    0.6084318257    1.0782055161
  H    1.3608663060   -1.6963854255    0.6724802960
  H    2.5720519546   -1.2606818975   -0.6069625437
  H    2.7677418653   -0.6084109204    1.0781828806
